10 6 15 4 18 14 11 17 8 12 5 9 19 7 2 1 0 13 16 3  
10 6 15 4 18 14 11 17 8 12 5 9 19 2 7 0 1 13 16 3  
10 6 15 4 18 14 11 17 8 12 5 9 19 2 7 1 0 13 16 3  
10 6 15 4 18 14 11 17 8 12 5 9 19 2 7 0 1 13 16 3  
10 6 15 4 18 14 11 17 8 12 5 9 19 2 16 0 13 7 3 1  
10 6 15 4 18 14 11 17 8 12 5 9 19 2 7 0 1 13 16 3  
10 6 15 4 18 14 7 8 11 17 12 9 19 5 2 13 0 16 1 3  
10 6 15 4 18 14 11 17 8 12 5 9 19 2 0 1 7 13 16 3  
10 6 15 4 18 14 7 8 11 17 12 9 19 5 2 0 13 16 3 1  
10 6 15 4 18 14 11 17 8 12 5 9 19 2 7 1 0 13 16 3  
10 6 15 4 18 14 11 17 8 12 5 9 19 2 0 1 7 3 13 16  
10 6 15 4 18 14 11 17 8 12 5 9 13 2 16 0 1 7 3 19  
10 6 15 4 18 14 11 17 8 12 5 9 19 2 0 1 7 13 16 3  
10 6 15 4 18 14 7 8 11 17 12 9 19 5 2 0 1 13 16 3  
10 6 15 4 18 14 11 17 8 12 5 9 19 2 0 1 7 13 16 3  
10 6 15 4 18 14 11 17 8 12 5 9 19 7 2 0 1 13 16 3  
10 6 15 4 18 14 7 8 11 17 12 9 19 5 2 0 13 16 3 1  
10 6 15 4 18 14 11 17 8 12 5 9 19 1 0 7 2 13 16 3  
10 6 15 4 18 14 11 17 8 12 5 9 19 2 7 1 0 13 16 3  
10 6 15 4 18 14 7 8 11 17 12 9 19 5 2 0 13 16 3 1  
10 6 15 4 18 14 7 8 11 17 12 5 9 19 2 1 0 13 16 3  
10 6 15 4 18 14 11 17 8 12 5 9 19 2 16 0 13 7 3 1  
10 6 15 4 18 14 11 17 8 12 5 9 19 2 16 0 13 7 3 1  
10 6 15 4 18 14 7 8 11 17 12 9 19 5 2 13 0 16 1 3  
10 6 15 4 18 14 11 17 8 12 5 9 19 1 0 2 7 13 16 3  
10 6 15 4 18 14 11 17 8 12 5 9 19 2 7 1 0 13 16 3  
10 6 15 4 18 14 7 8 11 17 12 5 9 19 2 13 16 0 1 3  
10 6 15 4 18 14 11 17 8 12 5 9 19 7 1 0 2 13 16 3  
10 6 15 4 18 14 11 17 8 12 5 9 19 2 13 16 0 1 7 3  
